#read_data	/Users/niko/Desktop/VSCode/simulation-UHMW-PE-adhesion/lammps/data/sim_md_1kA.txt

# Dreiding potential information
neighbor	0.4 bin
neigh_modify	every 10 one 10000
bond_style      harmonic
bond_coeff	1 350 1.53
angle_style     harmonic
angle_coeff	1 60 109.5
dihedral_style	multi/harmonic
dihedral_coeff	1 1.73 -4.49 0.776 6.99 0.0
pair_style	lj/cut 10.5
pair_coeff	1 1 0.112 4.01 10.5


compute csym all centro/atom fcc
compute peratom all pe/atom
compute temp all temp
compute kenetic all ke/atom


#####################################################
# Equilibration (Langevin dynamics at 500 K)

velocity 	all create 500.0 1231
fix		1 all nve/limit 0.05
fix		2 all langevin 500.0 500.0 10.0 904297
thermo_style	custom step temp press
thermo          	100
#dump 1 all cfg 1 dump.sim_1kA_*.cfg mass type xs ys zs c_csym c_peratom fx fy fz
timestep	1
run		1000
WARNING: Asking for neigh list (../fix_atomify.cpp:63)
Neighbor list info ...
  update every 10 steps, delay 10 steps, check yes
  max neighbors/atom: 10000, page size: 100000
  master list distance cutoff = 10.9
  ghost atom cutoff = 10.9
  binsize = 5.45, bins = 5 9 6
  3 neighbor lists, perpetual/occasional/extra = 1 2 0
  (1) pair lj/cut, perpetual
      attributes: half, newton on
      pair build: half/bin/newton
      stencil: half/bin/3d/newton
      bin: standard
  (2) fix atomify, occasional, copy from (1)
      attributes: half, newton on
      pair build: copy
      stencil: none
      bin: none
  (3) compute centro/atom, occasional
      attributes: full, newton on
      pair build: full/bin
      stencil: full/bin/3d
      bin: standard
Per MPI rank memory allocation (min/avg/max) = 8.111 | 8.111 | 8.111 Mbytes
Step Temp Press 
       0          500    10367.898 
     100    497.76875    10847.262 
     200     497.7719    11329.055 
     300    482.83505    12139.906 
     400    492.12553    11231.723 
     500    484.15813     14503.85 
     600    500.77163     13369.64 
     700    500.20062    14596.554 
     800    495.69261    14455.387 
     900     494.6868    13236.277 
    1000    508.69538    14160.513 
Loop time of 13.0343 on 1 procs for 1000 steps with 1200 atoms

Performance: 6.629 ns/day, 3.621 hours/ns, 76.720 timesteps/s
147.8% CPU use with 1 MPI tasks x 1 OpenMP threads

MPI task timing breakdown:
Section |  min time  |  avg time  |  max time  |%varavg| %total
---------------------------------------------------------------
Pair    | 1.6077     | 1.6077     | 1.6077     |   0.0 | 12.33
Bond    | 0.12158    | 0.12158    | 0.12158    |   0.0 |  0.93
Neigh   | 0.20515    | 0.20515    | 0.20515    |   0.0 |  1.57
Comm    | 0.022143   | 0.022143   | 0.022143   |   0.0 |  0.17
Output  | 0.00014758 | 0.00014758 | 0.00014758 |   0.0 |  0.00
Modify  | 11.064     | 11.064     | 11.064     |   0.0 | 84.88
Other   |            | 0.01404    |            |       |  0.11

Nlocal:    1200 ave 1200 max 1200 min
Histogram: 1 0 0 0 0 0 0 0 0 0
Nghost:    4508 ave 4508 max 4508 min
Histogram: 1 0 0 0 0 0 0 0 0 0
Neighs:    119555 ave 119555 max 119555 min
Histogram: 1 0 0 0 0 0 0 0 0 0
FullNghs:  239110 ave 239110 max 239110 min
Histogram: 1 0 0 0 0 0 0 0 0 0

Total # of neighbors = 239110
Ave neighs/atom = 199.258
Ave special neighs/atom = 5.2
Neighbor list builds = 56
Dangerous builds = 13
unfix 1
unfix 2

write_restart 	${rfolder}restart.sim_1kA_restart_LD
write_restart 	/Users/niko/Desktop/VSCode/simulation-UHMW-PE-adhesion/lammps/restart_sim1k/restart.sim_1kA_restart_LD
WARNING: Asking for neigh list (../fix_atomify.cpp:63)

# Equilibration Stage 2 (NPT dynamics at 500 K)
fix		1 all npt temp 500.0 500.0 50 iso 0 0 1000 drag 2
fix  		2 all momentum 1 linear 1 1 1
thermo_style	custom step temp press
thermo          	100
timestep	0.5
reset_timestep	0
run		1000
WARNING: Asking for neigh list (../fix_atomify.cpp:63)
Per MPI rank memory allocation (min/avg/max) = 9.252 | 9.252 | 9.252 Mbytes
Step Temp Press 
       0    508.69538    14160.513 
     100    501.18934    9803.5415 
     200    508.06886    3196.4419 
     300    522.91586     7319.624 
     400    498.27109    7364.1911 
     500    487.15068    6584.6114 
     600    491.74084    3097.0591 
     700    488.01112    149.23595 
     800    498.49933    1195.8363 
     900    482.38542    3115.7869 
    1000    469.95982    3296.8031 
Loop time of 12.0209 on 1 procs for 1000 steps with 1200 atoms

Performance: 3.594 ns/day, 6.678 hours/ns, 83.188 timesteps/s
277.8% CPU use with 1 MPI tasks x 1 OpenMP threads

MPI task timing breakdown:
Section |  min time  |  avg time  |  max time  |%varavg| %total
---------------------------------------------------------------
Pair    | 1.3969     | 1.3969     | 1.3969     |   0.0 | 11.62
Bond    | 0.1131     | 0.1131     | 0.1131     |   0.0 |  0.94
Neigh   | 0.15645    | 0.15645    | 0.15645    |   0.0 |  1.30
Comm    | 0.022639   | 0.022639   | 0.022639   |   0.0 |  0.19
Output  | 0.00015426 | 0.00015426 | 0.00015426 |   0.0 |  0.00
Modify  | 10.322     | 10.322     | 10.322     |   0.0 | 85.87
Other   |            | 0.00977    |            |       |  0.08

Nlocal:    1200 ave 1200 max 1200 min
Histogram: 1 0 0 0 0 0 0 0 0 0
Nghost:    4207 ave 4207 max 4207 min
Histogram: 1 0 0 0 0 0 0 0 0 0
Neighs:    99969 ave 99969 max 99969 min
Histogram: 1 0 0 0 0 0 0 0 0 0
FullNghs:  199938 ave 199938 max 199938 min
Histogram: 1 0 0 0 0 0 0 0 0 0

Total # of neighbors = 199938
Ave neighs/atom = 166.615
Ave special neighs/atom = 5.2
Neighbor list builds = 50
Dangerous builds = 0
unfix 1
unfix 2

write_restart 	${rfolder}restart.sim_1kA_restart_NPT
write_restart 	/Users/niko/Desktop/VSCode/simulation-UHMW-PE-adhesion/lammps/restart_sim1k/restart.sim_1kA_restart_NPT
WARNING: Asking for neigh list (../fix_atomify.cpp:63)

# Equilibration Stage 3 (NPT dynamics from 500 K --> 100 K)
fix		1 all npt temp 500 100 50 iso 0 0 1000 drag 2
fix		2 all momentum 1 linear 1 1 1
thermo_style	custom step temp press
thermo          	10
timestep	0.5
reset_timestep 	0
run		1000
WARNING: Asking for neigh list (../fix_atomify.cpp:63)
Per MPI rank memory allocation (min/avg/max) = 9.253 | 9.253 | 9.253 Mbytes
Step Temp Press 
       0    469.95982    3296.8031 
      10    465.14558    3795.7305 
      20    473.49316    3490.5592 
      30    474.92708    2656.2326 
      40    474.18671    2226.0659 
      50    478.70888     2757.519 
      60    486.62509    3794.9835 
      70    480.29802    4175.7488 
      80    472.10734     3438.398 
      90    483.26151    2252.3899 
     100    479.36968    1399.6718 
     110     469.0724    1552.7842 
     120     485.7845    2521.5795 
     130    479.96906     2803.321 
     140    459.09211    1868.6493 
     150    471.21602    633.18412 
     160     468.1054   -227.85407 
     170    449.73085   -114.72222 
     180    467.12363    944.70036 
     190    469.08818    1442.8888 
     200    454.67904    740.31822 
     210    464.30956   -402.35603 
     220    458.53136   -1268.8881 
     230     448.7652   -1092.4306 
     240    452.82679   -73.106659 
     250    453.04371    602.25649 
     260    457.36058    301.58383 
     270    452.28659   -772.55078 
     280    453.52932   -1515.2059 
     290    459.93353    -1237.538 
     300    445.07448    -392.5037 
     310    450.69764    422.42326 
     320    465.16966    399.17272 
     330    450.94461   -556.20809 
     340     456.1265   -1153.0494 
     350    463.66365   -816.52399 
     360    441.38896    49.738619 
     370    436.96923    951.23644 
     380    438.70337    1043.2073 
     390    423.68519    266.45051 
     400    422.56864   -303.04735 
     410    428.20023    4.7847597 
     420    423.32978    973.03668 
     430    418.84771    1843.6432 
     440    420.03392    1916.4667 
     450    415.38999    1202.4735 
     460    403.63383    497.43756 
     470    405.14986    699.70838 
     480    407.76255    1633.2499 
     490     398.2209    2338.4974 
     500    401.32734    2260.5031 
     510    404.72555    1400.9803 
     520    394.13371    497.99581 
     530    394.04665    512.18363 
     540    394.64787    1279.9308 
     550    386.97429    1891.3791 
     560    384.28647    1713.3208 
     570    380.20846     805.4002 
     580    376.30558    12.071844 
     590    368.44349   -3.1939722 
     600    363.24239    706.26109 
     610    367.15835    1402.8631 
     620    358.49728    1206.4035 
     630    356.25459    349.42497 
     640     363.7258   -348.66252 
     650    351.26874   -419.22185 
     660    348.90773    302.91075 
     670    355.38736    1021.0858 
     680    346.69966    805.67009 
     690    348.35707   -72.575473 
     700    354.38284   -826.11102 
     710    346.65972   -858.54837 
     720    343.60207   -142.71823 
     730    340.05594    459.71688 
     740    334.50323    248.84278 
     750    329.72691   -631.58612 
     760    326.38424   -1366.2277 
     770    332.42647   -1256.4069 
     780    326.82759   -637.05857 
     790    321.42078   -130.67785 
     800    326.07013   -207.46151 
     810     310.7982   -995.57915 
     820    302.47913   -1625.1765 
     830    308.67608   -1473.4788 
     840    299.35677   -851.80955 
     850    297.91212   -191.05962 
     860    303.90223   -57.225292 
     870     295.4905   -607.14805 
     880    289.60668   -1132.0707 
     890    288.63088   -1040.4363 
     900    283.61791   -411.38932 
     910    278.73056    207.39839 
     920    278.27266    302.96004 
     930     276.7798   -164.85372 
     940    268.70833   -741.98006 
     950    266.73743    -812.8701 
     960    266.31032    -351.4389 
     970    257.20431    136.27065 
     980    257.77591     314.1548 
     990    256.77683   -22.143505 
    1000    247.02595   -608.41876 
Loop time of 10.6996 on 1 procs for 1000 steps with 1200 atoms

Performance: 4.038 ns/day, 5.944 hours/ns, 93.461 timesteps/s
280.6% CPU use with 1 MPI tasks x 1 OpenMP threads

MPI task timing breakdown:
Section |  min time  |  avg time  |  max time  |%varavg| %total
---------------------------------------------------------------
Pair    | 1.2625     | 1.2625     | 1.2625     |   0.0 | 11.80
Bond    | 0.11208    | 0.11208    | 0.11208    |   0.0 |  1.05
Neigh   | 0.12276    | 0.12276    | 0.12276    |   0.0 |  1.15
Comm    | 0.020838   | 0.020838   | 0.020838   |   0.0 |  0.19
Output  | 0.0013475  | 0.0013475  | 0.0013475  |   0.0 |  0.01
Modify  | 9.1712     | 9.1712     | 9.1712     |   0.0 | 85.72
Other   |            | 0.008847   |            |       |  0.08

Nlocal:    1200 ave 1200 max 1200 min
Histogram: 1 0 0 0 0 0 0 0 0 0
Nghost:    4046 ave 4046 max 4046 min
Histogram: 1 0 0 0 0 0 0 0 0 0
Neighs:    95308 ave 95308 max 95308 min
Histogram: 1 0 0 0 0 0 0 0 0 0
FullNghs:  190616 ave 190616 max 190616 min
Histogram: 1 0 0 0 0 0 0 0 0 0

Total # of neighbors = 190616
Ave neighs/atom = 158.847
Ave special neighs/atom = 5.2
Neighbor list builds = 43
Dangerous builds = 0
unfix 1
unfix 2

write_restart 	${rfolder}restart.sim_1kA_restart_NPT_500K_100K
write_restart 	/Users/niko/Desktop/VSCode/simulation-UHMW-PE-adhesion/lammps/restart_sim1k/restart.sim_1kA_restart_NPT_500K_100K
WARNING: Asking for neigh list (../fix_atomify.cpp:63)

# Equilibration Stage 4 (NPT dynamics at 100 K)
fix		1 all npt temp 100 100 50 iso 0 0 1000 drag 2
fix		2 all momentum 1 linear 1 1 1
thermo_style	custom step temp press epair ebond eangle edihed pxx pyy pzz lx ly lz
thermo          	10
timestep	0.5
reset_timestep 	0
run		1000
WARNING: Asking for neigh list (../fix_atomify.cpp:63)
Per MPI rank memory allocation (min/avg/max) = 9.253 | 9.253 | 9.253 Mbytes
Step Temp Press E_pair E_bond E_angle E_dihed Pxx Pyy Pzz Lx Ly Lz 
       0    247.02595   -608.41876   -1595.6295    333.89602    246.98536    245.52333    808.00653   -1390.9291   -1242.3337    25.404124    52.085142    33.077654 
      10      250.259   -786.41232   -1596.7166    310.79471    248.96263    244.72089    665.71861   -1725.0263   -1299.9293    25.403522    52.083908     33.07687 
      20    243.87803   -470.65319   -1598.6596    309.23397    250.88088    244.09745    845.55919   -1500.7025   -756.81631    25.401682    52.080134    33.074473 
      30    235.42098     76.00011    -1600.777    324.20669    245.99911    243.12024    1406.1944    -1020.111     -158.083    25.399121    52.074885     33.07114 
      40    237.28629    415.89115   -1601.9606    306.95663    238.09269    241.51173    2125.1572    -679.9985   -197.48528    25.396715    52.069952    33.068007 
      50    230.13823    143.07326   -1601.8117    312.82525    238.01209    239.15585    2174.1165   -924.27314   -820.62358    25.394964    52.066362    33.065726 
      60    227.66269    -351.1088   -1601.1674    295.98598    244.58698    235.92952     1789.661   -1526.5219   -1316.4655    25.393457    52.063272    33.063764 
      70    228.73767   -541.14253   -1601.0339     272.5936    245.97264    232.04795    1362.0523   -1767.9283   -1217.5516    25.391437    52.059129    33.061133 
      80    219.78589   -306.94753    -1601.795    295.37233    238.77749    227.95596    1235.6735   -1463.7006   -692.81556    25.388608     52.05333     33.05745 
      90    220.47211    219.49833   -1602.8584    288.00483    228.51238    223.99093    1932.3207   -974.91225   -298.91348    25.385369    52.046689    33.053233 
     100    217.18087    435.33478   -1603.2666    288.32361    223.94349    220.33377     2539.154   -808.64903   -424.50067    25.382518    52.040844    33.049521 
     110    209.85737    127.18569   -1602.8873    295.63569     226.7759    216.97941     2401.773    -1165.454   -854.76192    25.380377    52.036454    33.046733 
     120    214.97472   -303.57369   -1602.4984    262.55807    225.59065    213.89151    1782.9434   -1573.6028   -1120.0617    25.378478     52.03256     33.04426 
     130    210.60311   -586.23993   -1602.8743    273.10774    214.78989    211.16423    860.62893   -1553.8159   -1065.5328    25.376127    52.027739    33.041199 
     140    207.95523    -456.6302   -1604.2235    279.28905    203.50919    208.92857    678.12439   -1218.4602   -829.55474    25.372902    52.021128       33.037 
     150    212.38453    -81.00765   -1606.0039    253.35036    198.93622    207.11699    1320.4822   -935.94679   -627.55832    25.369018    52.013165    33.031943 
     160     202.6423    6.1528565   -1607.2232    270.86376    201.19106    205.42007    1627.5228   -978.67009   -630.39412    25.365032    52.004993    33.026753 
     170    199.61833   -199.38007   -1607.5875    261.05983    207.47841      203.512    1508.0911   -1294.2725   -811.95874    25.361098    51.996926     33.02163 
     180    199.43897   -546.16795   -1608.0174    243.99891    211.39407    201.19736    819.87355   -1503.0596   -955.31784     25.35689      51.9883    33.016152 
     190    189.66549   -805.96357   -1609.2286    269.08951     209.2314    198.61347   -89.535966   -1387.1753   -941.17942    25.351866       51.978    33.009611 
     200    192.95331    -651.6549   -1611.4392    252.65128    203.51732    196.13414    72.092071    -1162.169   -864.88771    25.345665    51.965286    33.001537 
     210    193.44228   -360.81452   -1613.9407    246.49928    197.42392    193.78781    794.06783   -1067.4874   -809.02395    25.338527    51.950651    32.992242 
     220    188.99425    -243.3408    -1616.025    258.81714    190.84146    191.21223     1251.909   -1175.8638   -806.06764    25.330912    51.935038    32.982327 
     230    196.74182   -292.46649   -1617.6187    224.77807    186.86741    188.12752    1421.2132   -1400.4816   -898.13109    25.323035    51.918887     32.97207 
     240    190.68731   -543.97992   -1619.2498    238.50078    184.46895    184.59299     816.3922   -1476.1083   -972.22362     25.31481    51.902024    32.961361 
     250    186.10837   -618.08327   -1621.6981    251.34416    179.51551    180.89785    373.43828   -1294.2865   -933.40155     25.30589    51.883736    32.949747 
     260    191.40485   -398.37658   -1624.9602    225.98814    178.31876    177.19842    864.82132   -1152.2163   -907.73473    25.296194    51.863857    32.937122 
     270     180.6517   -281.18333   -1628.3243    250.16334    185.48249    173.47418     1306.051   -1225.9886   -923.61239    25.286043    51.843044    32.923904 
     280    181.36213    -243.7505   -1631.2036     235.1368    191.38643    169.81601    1534.5054   -1331.5722   -934.18464    25.275656    51.821748     32.91038 
     290    187.65972   -324.29109   -1633.3666    204.72287    191.14919    166.48825    1363.6679   -1325.3872   -1011.1541      25.2651    51.800106    32.896636 
     300    176.82683    -521.3577   -1635.4598    240.22641    185.63405    163.65582    747.65652   -1233.8014   -1077.9282    25.254248    51.777856    32.882506 
     310    180.33943   -444.55145   -1638.0805    229.19521    176.23152    161.28808    832.76584   -1162.4479   -1003.9722    25.242855    51.754498    32.867671 
     320     183.2405   -275.70908   -1641.2621    214.15647    172.56539    159.48709    1335.7971   -1279.1689   -883.75538     25.23104    51.730273    32.852287 
     330    172.28155   -298.20868      -1644.2    240.12044    177.00962     158.4573    1390.7958   -1473.3936   -812.02829    25.219053    51.705698     32.83668 
     340    176.79015   -361.56962   -1646.3623    213.57854    177.80831    158.12161    1172.0025   -1412.8571   -843.85426    25.206901    51.680782    32.820857 
     350    177.50162   -519.37451   -1647.5454    205.86519    171.49444    158.21714    650.13383   -1194.2768   -1013.9805     25.19448    51.655316    32.804684 
     360    169.90303   -628.16956     -1648.58    228.98134    163.96517     158.4707    398.41656   -1143.9195   -1139.0058    25.181572    51.628851    32.787877 
     370    174.40795   -454.03108   -1650.2514     206.1924    160.18298    158.64522    919.61667    -1243.494   -1038.2159    25.168066     51.60116    32.770291 
     380    171.84323    -283.6479   -1652.7098    204.65377    161.41367    158.63288    1322.7226   -1350.8196   -822.84666    25.154228    51.572788    32.752273 
     390    166.44002   -298.24332   -1655.3458    213.74375    163.23163    158.38189    1184.6081   -1377.2918    -702.0463    25.140331    51.544297    32.734179 
     400    167.82246   -477.67581   -1657.4602    201.71505    161.94446    157.81939    674.50756   -1279.4503   -828.08466    25.126371    51.515675    32.716003 
     410     163.2171   -727.06845    -1658.941    210.49762    160.95046    156.90385    152.32206   -1207.3533   -1126.1741    25.112084    51.486384      32.6974 
     420    161.71005    -716.3038   -1660.3761    206.56161    162.14556    155.71118     349.5304   -1257.7054   -1240.7364    25.097148     51.45576    32.677953 
     430    162.14653   -432.65005   -1662.3961    197.23366       162.68    154.49601    1003.8973    -1332.929    -968.9184    25.081621    51.423926    32.657735 
     440    159.08906    -182.6509   -1665.0817    203.15526    161.35823    153.56336    1396.8188   -1370.0285   -574.74299    25.065949    51.391793    32.637329 
     450    160.39628   -183.94484   -1667.8271    195.79851     157.6801    153.10285    1285.5839    -1359.702    -477.7164    25.050522    51.360163    32.617242 
     460    158.62217   -484.63062   -1670.1081    197.82682     154.4524     153.1877    629.91649   -1292.4191    -791.3893    25.035334    51.329024    32.597466 
     470    155.50974   -748.07195   -1671.8726    201.38657    153.48123     153.7311    147.05031   -1219.3564   -1171.9097    25.019964    51.297512    32.577454 
     480    157.45821     -630.888   -1673.4344      187.527    151.54788    154.41606    446.46039   -1190.3637   -1148.7607    25.004073    51.264932    32.556763 
     490    154.47371   -279.67849   -1675.2252    192.90895    148.76385    154.93304     1078.616    -1242.476    -675.1754    24.987862    51.231696    32.535656 
     500    153.18722   -8.2234963   -1677.4741    191.00468    148.64205    155.13417    1523.6085   -1314.0494   -234.22962     24.97187    51.198908    32.514833 
     510    154.76493   -107.16097   -1679.8243    180.24371    147.82264    154.90243    1217.7675   -1226.9718   -312.27853    24.956485    51.167363      32.4948 
     520    150.54219   -568.63908   -1681.8444    192.12565    145.14733    154.15348    130.03323   -1031.9545   -803.99592    24.941536    51.136714    32.475336 
     530    149.07726   -922.41209   -1683.6164    190.95999    145.91273    152.77473   -604.19683    -1011.221   -1151.8184    24.926369    51.105617    32.455588 
     540    148.83613   -838.66598   -1685.3415    182.89128    149.90796    150.56774   -376.21417   -1153.2575   -986.52631    24.910506    51.073095    32.434934 
     550    145.98558   -414.10345   -1687.1824    187.54749    151.98728     147.5335    447.87355   -1227.0256    -463.1583    24.894113    51.039485    32.413589 
     560    147.47719   -29.980939   -1689.2816    180.66256    151.53921       143.98    1116.9726   -1111.4883    -95.42715    24.877834    51.006108    32.392392 
     570    147.81433   -112.84775   -1691.4174    181.96543    147.40974    140.29142    726.52209   -837.63366   -227.43169    24.862203     50.97406     32.37204 
     580    146.93833   -598.90807   -1693.5654    187.21891    143.19256    136.74045   -421.23933   -724.97678   -650.50812     24.84708    50.943056     32.35235 
     590    147.85552   -999.04317   -1695.6475    176.80312    147.30728    133.48325   -1060.3786   -1027.5145   -909.23648    24.831779    50.911684    32.332427 
     600    146.08103    -916.4039    -1697.564    173.22465    153.35784    130.67511    -631.5441   -1339.0967   -778.57087    24.815765    50.878851    32.311576 
     610    145.55314   -358.98117   -1699.2948     174.4897     149.7111    128.59721     478.8315   -1183.6108   -372.16416    24.799216    50.844922    32.290028 
     620    146.16155    152.60884   -1700.8172    175.78373    141.51132    127.55583    1213.3958   -740.28644   -15.282809    24.782945    50.811561    32.268842 
     630    145.02407    114.66215   -1702.1357    179.87028    135.88349    127.52235    814.62208   -480.47853    9.8429108    24.767647    50.780197    32.248923 
     640     145.0981   -396.78547    -1703.211    176.94453    131.86287    128.10931   -215.95544   -684.74433   -289.65666    24.753231    50.750639    32.230152 
     650    144.34556   -873.84915   -1704.2342    172.79011    131.11388    128.99689   -811.43137   -1195.9078   -614.20831    24.738954    50.721368    32.211563 
     660       142.18   -830.55889   -1705.3053     170.3987    133.42676    130.06373   -472.27432   -1394.8495   -624.55283    24.724169    50.691055    32.192312 
     670    140.31037    -288.2242   -1706.6175    168.53941    134.93007    131.18708    358.65441   -941.76246   -281.56456    24.708974    50.659902    32.172528 
     680    138.14365    197.84177   -1708.2645    167.64366    137.95938    132.08214    812.45548   -334.56909     115.6389     24.69413    50.629466    32.153199 
     690    136.98129    131.66523   -1709.8952    163.99281      141.299    132.37403    450.35341   -260.19836    204.84063    24.680273    50.601056    32.135157 
     700    136.42649   -444.90783   -1711.4273    165.90804    137.40996    131.88173   -455.38424   -759.15114   -120.18811    24.667257     50.57437    32.118209 
     710    136.70391   -995.49154   -1713.1818    168.89584    129.89545    130.64366   -1168.7205   -1294.7287   -523.02542    24.654254    50.547711    32.101279 
     720    138.60456   -1006.5884   -1715.3917    162.44821    126.76612    128.69356   -1155.6422     -1303.27   -560.85281    24.640524     50.51956    32.083401 
     730    138.65315   -509.82741   -1717.9453    162.38553    124.94064    126.09563   -606.41302   -693.56485   -229.50435    24.626088    50.489963    32.064605 
     740    138.26523   -9.8065023     -1720.46    165.57157    122.29679    123.10156   -93.525592   -87.131248    151.23733     24.61165    50.460361    32.045806 
     750    138.94238   -15.077001   -1722.4567    161.19306     123.2128    120.09346   -139.50649   -195.25968    289.53516    24.597875    50.432119     32.02787 
     760    136.39087   -562.88775   -1724.0185       163.66    127.80849    117.40163    -905.5215   -837.77825     54.63649    24.584711    50.405129    32.010729 
     770    135.01313   -1100.8717   -1725.6162    160.59539    132.91286    115.26195   -1749.9811   -1251.1334   -301.50057    24.571396    50.377831    31.993393 
     780    135.78798   -1105.0786    -1727.734    152.10905    135.28245    113.87893   -1914.3667   -1062.0372   -338.83202    24.557228    50.348781    31.974945 
     790    133.91517    -598.9938   -1730.1954    159.75749    130.77486     113.3603   -1322.9488   -457.83795   -16.194666    24.542244    50.318061    31.955435 
     800     134.4551   -39.440135   -1732.4279     161.3246    123.52592    113.55572   -452.38059   -40.580795    374.64098    24.527167     50.28715    31.935804 
     810    134.65955    21.929329   -1734.2592    156.78866    123.08668    114.11629   -149.65447    -316.4629    531.90537    24.512738    50.257565    31.917016 
     820    132.29751    -454.0549   -1735.8681    154.79944    128.76578    114.83674   -715.24683   -899.12901    252.21114    24.499001    50.229401     31.89913 
     830    131.65243   -933.25993   -1737.8887    148.77115    132.27713    115.69477   -1520.0935   -1041.5928   -238.09353    24.485304    50.201319    31.881296 
     840    129.77513   -943.48839   -1740.7087     152.8018    130.70401    116.61167   -1763.3164   -707.51153   -359.63729    24.471018    50.172029    31.862695 
     850     128.6693   -452.98646   -1743.8113    156.84937    127.24012    117.42193   -1078.2093   -311.59107     30.84102    24.456168    50.141582    31.843359 
     860    128.86763    76.470319   -1746.5999     155.1088    125.55857    117.95755   -81.714187   -195.63982    506.76496    24.441425    50.111356    31.824163 
     870    128.21503    145.50217   -1748.8755     153.9002    126.58209    118.18638    265.93641   -477.12889    647.69898    24.427474    50.082752    31.805998 
     880    128.86334   -245.71448    -1750.945    148.63164    126.86704    118.22601   -251.60419   -800.80483     315.2656    24.414367     50.05588    31.788932 
     890    127.89949   -678.96264   -1753.3292    151.28024    124.99598     118.1506   -1075.3537   -763.89224   -197.64202    24.401555     50.02961    31.772249 
     900    126.25774   -700.29313   -1756.1914    156.07274    123.92887    117.93321   -1275.8201   -531.47584   -293.58347    24.388464    50.002771    31.755204 
     910    127.51929   -264.71578   -1759.2512     148.0869    125.98523    117.50238   -549.91867   -391.89557    147.66691    24.375086    49.975342    31.737785 
     920    126.47629    168.04064   -1762.1112    148.40201    128.46993    116.78841    277.80252   -368.77974    595.09912    24.361989     49.94849    31.720732 
     930      126.087    201.34431   -1764.4133    149.92018    127.51915    115.78031    417.80766   -435.16984    621.39511    24.349713    49.923322    31.704749 
     940    129.02756    -157.9094   -1766.3617     140.7024    125.02881    114.50924   -172.80482   -540.92612    240.00274     24.33826     49.89984    31.689836 
     950    127.24679   -583.61452   -1768.2533    146.41374    124.23705    113.01006   -959.04116      -603.01   -188.79239    24.327119    49.876998     31.67533 
     960    126.91628   -616.93868   -1770.5552    147.72756    123.07907    111.32603   -1057.2021   -608.78717   -184.82683    24.315734    49.853656    31.660506 
     970    129.62748   -235.71847   -1773.0569    139.60617     120.8507    109.56384   -412.06449   -562.14467    267.05373    24.304073    49.829746    31.645322 
     980    126.92656      108.976   -1775.1243    149.31903    119.92368    107.87473    143.34867   -458.03501    641.61435    24.292617     49.80626    31.630406 
     990    127.40342    131.33897   -1776.4327    145.82957    120.11543    106.39004      137.543   -333.00546    589.47936      24.2818    49.784082    31.616322 
    1000    129.16473   -180.70172   -1777.1964    136.60339     120.3937    105.22992   -458.14781   -330.60854    246.65121    24.271614    49.763197    31.603058 
Loop time of 10.7222 on 1 procs for 1000 steps with 1200 atoms

Performance: 4.029 ns/day, 5.957 hours/ns, 93.264 timesteps/s
283.1% CPU use with 1 MPI tasks x 1 OpenMP threads

MPI task timing breakdown:
Section |  min time  |  avg time  |  max time  |%varavg| %total
---------------------------------------------------------------
Pair    | 1.2856     | 1.2856     | 1.2856     |   0.0 | 11.99
Bond    | 0.1102     | 0.1102     | 0.1102     |   0.0 |  1.03
Neigh   | 0.097008   | 0.097008   | 0.097008   |   0.0 |  0.90
Comm    | 0.020461   | 0.020461   | 0.020461   |   0.0 |  0.19
Output  | 0.0024319  | 0.0024319  | 0.0024319  |   0.0 |  0.02
Modify  | 9.1978     | 9.1978     | 9.1978     |   0.0 | 85.78
Other   |            | 0.008655   |            |       |  0.08

Nlocal:    1200 ave 1200 max 1200 min
Histogram: 1 0 0 0 0 0 0 0 0 0
Nghost:    4338 ave 4338 max 4338 min
Histogram: 1 0 0 0 0 0 0 0 0 0
Neighs:    105098 ave 105098 max 105098 min
Histogram: 1 0 0 0 0 0 0 0 0 0
FullNghs:  210196 ave 210196 max 210196 min
Histogram: 1 0 0 0 0 0 0 0 0 0

Total # of neighbors = 210196
Ave neighs/atom = 175.163
Ave special neighs/atom = 5.2
Neighbor list builds = 33
Dangerous builds = 0
unfix 1
unfix 2

write_restart 	${rfolder}restart.sim_1kA_restart_NPT_100K
write_restart 	/Users/niko/Desktop/VSCode/simulation-UHMW-PE-adhesion/lammps/restart_sim1k/restart.sim_1kA_restart_NPT_100K
WARNING: Asking for neigh list (../fix_atomify.cpp:63)

write_data ${sfolder}data.sim_1kA_final
write_data /Users/niko/Desktop/VSCode/simulation-UHMW-PE-adhesion/lammps/final_save/data.sim_1kA_final
WARNING: Asking for neigh list (../fix_atomify.cpp:63)


#####################################################
# Define Settings
#compute eng all pe/atom
#compute eatoms all reduce sum c_eng

#####################################################
# Minimization

#dump 		1 all cfg 1 ${dfolder}dump.sim_1kA_final*.cfg mass type xs ys zs c_csym c_peratom fx fy fz

#reset_timestep 0
#fix 1 all nvt temp 500.0 500.0 100.0
#thermo 20
#thermo_style custom step pe lx ly lz press pxx pyy pzz c_eatoms
#min_style cg
#minimize 1e-25 1e-25 500000 1000000


#print "All done"
Total wall time: 0:00:49
